(declare-sort A 0)
(declare-fun g (A) A)
(declare-fun f (A) A)
(declare-const b A)
(declare-const a A)
(assert (or (= (g (g b)) a) (= (g (f b)) a)))
(assert (= (g b) a))
(assert (or (not (= (f b) (f b))) (= (f b) a)))
(assert (not (= (g a) a)))